TYPE : Vertex Cover
DIMENSION: 22
EDGE_DATA_SECTION:
0 4
0 10
1 7
1 9
1 10
1 20
2 9
2 18
2 21
3 4
3 15
4 14
4 15
4 16
4 18
5 7
5 14
6 17
7 8
7 12
7 13
7 17
8 18
9 14
10 12
10 14
10 16
10 18
11 15
11 20
12 17
14 15
14 18
16 20
17 18
17 20
-1
VERTEX_DEGREE:
2.0 4.0 3.0 2.0 6.0 2.0 1.0 6.0 2.0 3.0 6.0 2.0 3.0 1.0 6.0 4.0 3.0 5.0 6.0 0.0 4.0 1.0
VERTEX_COVER:
1 2 4 7 10 14 15 17 18 20
EOF
